NAME : expansion
TYPE : TSP
DIMENSION : 53
EDGE_WEIGHT_TYPE : EUC_2D
NODE_COORD_SECTION
1 349180 780120
2 450544 853406
3 520730 975251
4 499013 914165
5 867039 669617
6 333693 593193
7 427927 688958
8 598663 439854
9 528426 912801
10 396083 75409
11 951164 335726
12 438123 944489
13 722852 308362
14 844670 462746
15 867837 583703
16 374835 697341
17 389399 32301
18 394774 818779
19 452205 788480
20 778685 430237
21 485611 932641
22 773975 524856
23 209651 134410
24 785389 462035
25 851064 306946
26 993218 24733
27 945609 586147
28 100134 69138
29 939729 569828
30 654789 996631
31 332843 745333
32 891052 562272
33 348471 797484
34 750697 451601
35 468605 896530
36 68083 399711
37 827189 209540
38 759540 451892
39 864086 413918
40 425753 909282
41 698423 398606
42 626463 505210
43 444018 681543
44 372035 764940
45 935287 585296
46 910415 464525
47 558877 997458
48 912819 644166
49 992869 485123
50 707970 428104
51 445356 788562
52 690434 949283
53 737095 444333
EOF
